(declare-fun T_1 () Bool)
(declare-fun T_10 () Bool)
(declare-fun T_11 () Bool)
(declare-fun T_12 () Bool)
(declare-fun T_13 () Bool)
(declare-fun T_14 () Bool)
(declare-fun T_15 () Bool)
(declare-fun T_16 () Bool)
(declare-fun T_17 () Bool)
(declare-fun T_18 () Bool)
(declare-fun T_19 () Bool)
(declare-fun T_1a () Bool)
(declare-fun T_1b () Bool)
(declare-fun T_1c () Bool)
(declare-fun T_1d () Bool)
(declare-fun T_1e () Bool)
(declare-fun T_1f () Bool)
(declare-fun T_2 () Bool)
(declare-fun T_20 () Bool)
(declare-fun T_21 () Bool)
(declare-fun T_22 () Bool)
(declare-fun T_23 () Bool)
(declare-fun T_24 () Bool)
(declare-fun T_25 () Bool)
(declare-fun T_26 () Bool)
(declare-fun T_27 () Bool)
(declare-fun T_28 () Bool)
(declare-fun T_29 () Bool)
(declare-fun T_2a () Bool)
(declare-fun T_3 () Bool)
(declare-fun T_4 () Bool)
(declare-fun T_5 () Bool)
(declare-fun T_6 () Bool)
(declare-fun T_7 () Bool)
(declare-fun T_8 () Bool)
(declare-fun T_9 () Bool)
(declare-fun T_a () Bool)
(declare-fun T_b () Bool)
(declare-fun T_c () Bool)
(declare-fun T_d () Bool)
(declare-fun T_e () Bool)
(declare-fun T_f () Bool)
(declare-fun var_0xINPUT_390355 () String)
(assert (= T_1 (not (= "2vbcJ9lN6J" var_0xINPUT_390355))))
(assert T_1)
(assert (= T_2 (not (= "" var_0xINPUT_390355))))
(assert T_2)
(assert (= T_3 (not (= "ND6MEXdqBD" var_0xINPUT_390355))))
(assert T_3)
(assert (= T_4 (not (= var_0xINPUT_390355 "ND6MEXdqBD"))))
(assert T_4)
(assert (= T_5 (= var_0xINPUT_390355 "")))
(assert (= T_6 (not T_5)))
(assert T_6)
(assert (= T_7 (not (= "" var_0xINPUT_390355))))
(assert T_7)
(assert (= T_8 (not (= "" var_0xINPUT_390355))))
(assert T_8)
(assert (= T_9 (not (= var_0xINPUT_390355 ""))))
(assert T_9)
(assert (= T_a (= var_0xINPUT_390355 "")))
(assert (= T_b (not T_a)))
(assert T_b)
(assert (= T_c (not (= "" var_0xINPUT_390355))))
(assert T_c)
(assert (= T_d (not (= var_0xINPUT_390355 ""))))
(assert T_d)
(assert (= T_e (not (= "" var_0xINPUT_390355))))
(assert T_e)
(assert (= T_f (= var_0xINPUT_390355 "")))
(assert (= T_10 (not T_f)))
(assert T_10)
(assert (= T_11 (not (= "" var_0xINPUT_390355))))
(assert T_11)
(assert (= T_12 (not (= var_0xINPUT_390355 ""))))
(assert T_12)
(assert (= T_13 (not (= "" var_0xINPUT_390355))))
(assert T_13)
(assert (= T_14 (= var_0xINPUT_390355 "")))
(assert (= T_15 (not T_14)))
(assert T_15)
(assert (= T_16 (not (= "" var_0xINPUT_390355))))
(assert T_16)
(assert (= T_17 (not (= var_0xINPUT_390355 ""))))
(assert T_17)
(assert (= T_18 (not (= "" var_0xINPUT_390355))))
(assert T_18)
(assert (= T_19 (= var_0xINPUT_390355 "")))
(assert (= T_1a (not T_19)))
(assert T_1a)
(assert (= T_1b (not (= "" var_0xINPUT_390355))))
(assert T_1b)
(assert (= T_1c (not (= var_0xINPUT_390355 "4PH2ujcENG"))))
(assert T_1c)
(assert (= T_1d (not (= "4PH2ujcENG" var_0xINPUT_390355))))
(assert T_1d)
(assert (= T_1e (= var_0xINPUT_390355 "")))
(assert (= T_1f (not T_1e)))
(assert T_1f)
(assert (= T_20 (not (= "" var_0xINPUT_390355))))
(assert T_20)
(assert (= T_21 (not (= var_0xINPUT_390355 "4PH2ujcENG"))))
(assert T_21)
(assert (= T_22 (not (= "4PH2ujcENG" var_0xINPUT_390355))))
(assert T_22)
(assert (= T_23 (= var_0xINPUT_390355 "")))
(assert (= T_24 (not T_23)))
(assert T_24)
(assert (= T_25 (not (= "" var_0xINPUT_390355))))
(assert T_25)
(assert (= T_26 (not (= var_0xINPUT_390355 "4PH2ujcENG"))))
(assert T_26)
(assert (= T_27 (not (= "4PH2ujcENG" var_0xINPUT_390355))))
(assert T_27)
(assert (= T_28 (= var_0xINPUT_390355 "")))
(assert (= T_29 (not T_28)))
(assert T_29)
(assert (= T_2a (not (= var_0xINPUT_390355 ""))))
(assert T_2a)
(check-sat)
